
  32    1
  10

   0   0   6 2 3 4 5 6 7 
   6   1   4 12 10 9 8 
   6   3   6 16 14 13 12 10 9 
   7   1   2 11 8 
  10   3   6 25 24 23 19 18 14 
   5   1   4 23 18 16 10 
  10   2   5 25 24 19 17 13 
   5   2   4 22 19 16 14 
   4   2   4 23 22 17 15 
   5   2   4 25 22 20 17 
   2   4   4 24 23 20 17 
   2   3   3 20 18 17 
   3   2   5 31 26 23 22 20 
   4   2   2 20 17 
   6   2   5 30 29 27 26 20 
   5   2   4 31 26 24 21 
   3   4   5 31 30 29 27 26 
   9   2   4 30 29 26 22 
  10   3   3 28 27 26 
   7   1   1 21 
   5   1   1 28 
   1   2   1 27 
   5   3   1 30 
  10   2   1 29 
   3   1   1 26 
  10   1   1 32
   5   1   1 32
   1   2   1 32
   9   2   1 32
   9   2   1 32
   1   1   1 32
   0   0   0 
